     Program PWSCF v.7.0 starts on 30Jan2023 at  6:57:23

     R & G space division:  proc/nbgrp/npool/nimage =      40

     Reading input from al2o3.in

     Current dimensions of program PWSCF are:
     Max number of different atomic species (ntypx) = 10
     Max number of k-points (npk) =  40000
     Max angular momentum in pseudopotentials (lmaxx) =  4
     Found identity + ( -0.5000  0.0000 -0.5000) symmetry
     This is a supercell, fractional translations are disabled
     Message from routine setup:
     using ibrav=0 with symmetry is DISCOURAGED, use correct ibrav instead

     Subspace diagonalization in iterative solution of the eigenvalue problem:
     a serial algorithm will be used

     Using Slab Decomposition

     bravais-lattice index     =            0
     lattice parameter (alat)  =      15.0010  a.u.
     unit-cell volume          =    3375.6912 (a.u.)^3
     number of atoms/cell      =          120
     number of atomic types    =            2
     number of electrons       =       456.00
     number of Kohn-Sham states=          274
     kinetic-energy cutoff     =      50.0000  Ry
     charge density cutoff     =     500.0000  Ry
     scf convergence threshold =      1.0E-04
     mixing beta               =       0.4000
     number of iterations used =            8  local-TF  mixing
     energy convergence thresh.=      1.0E-04
     force convergence thresh. =      1.0E-03
     press convergence thresh. =      5.0E-01
     Exchange-correlation= PBE
                           (   1   4   3   4   0   0   0)
     nstep                     =          100

     celldm(1)=  15.001024  celldm(2)=   0.000000  celldm(3)=   0.000000
     celldm(4)=   0.000000  celldm(5)=   0.000000  celldm(6)=   0.000000

     crystal axes: (cart. coord. in units of alat)
               a(1) = (   1.000000   0.000000   0.000000 )
               a(2) = (   0.000000   1.000000   0.000000 )
               a(3) = (   0.000000   0.000000   1.000000 )

     reciprocal axes: (cart. coord. in units 2 pi/alat)
               b(1) = (  1.000000  0.000000  0.000000 )
               b(2) = (  0.000000  1.000000  0.000000 )
               b(3) = (  0.000000  0.000000  1.000000 )

     PseudoPot. # 1 for Al read from file:
     ./Al.pbe-nl-rrkjus_psl.1.0.0.UPF
     MD5 check sum: 6db8691240a1c860ce6448702d298c4b
     Pseudo is Ultrasoft + core correction, Zval =  3.0
     Generated using &quot;atomic&quot; code by A. Dal Corso  v.6.3
     Using radial grid of 1135 points,  4 beta functions with:
                l(1) =   0
                l(2) =   0
                l(3) =   1
                l(4) =   1
     Q(r) pseudized with 0 coefficients

     PseudoPot. # 2 for O  read from file:
     ./O.pbe-n-rrkjus_psl.1.0.0.UPF
     MD5 check sum: 91400c9766925bcf19f520983a725ff0
     Pseudo is Ultrasoft + core correction, Zval =  6.0
     Generated using &quot;atomic&quot; code by A. Dal Corso  v.6.3MaX
     Using radial grid of 1095 points,  4 beta functions with:
                l(1) =   0
                l(2) =   0
                l(3) =   1
                l(4) =   1
     Q(r) pseudized with 0 coefficients

     atomic species   valence    mass     pseudopotential
        Al             3.00    26.98154     Al( 1.00)
        O              6.00    15.99940     O ( 1.00)

     12 Sym. Ops., with inversion, found

   Cartesian axes

     site n.     atom                  positions (alat units)
         1           Al  tau(   1) = (   0.1250000   0.1250000   0.1250000  )
         2           Al  tau(   2) = (   0.8750000   0.8750000   0.8750000  )
         3           Al  tau(   3) = (   0.6250000   0.1250000   0.6250000  )
         4           Al  tau(   4) = (   0.3750000   0.8750000   0.3750000  )
         5           Al  tau(   5) = (   0.1250000   0.6250000   0.6250000  )
         6           Al  tau(   6) = (   0.8750000   0.3750000   0.3750000  )
         7           Al  tau(   7) = (   0.6250000   0.6250000   0.1250000  )
         8           Al  tau(   8) = (   0.3750000   0.3750000   0.8750000  )
         9           Al  tau(   9) = (   0.5000000   0.5000000   0.5000000  )
        10           Al  tau(  10) = (   0.2500000   0.7500000   0.0000000  )
        11           Al  tau(  11) = (   0.7500000   0.2500000   0.0000000  )
        12           Al  tau(  12) = (   0.7500000   0.0000000   0.2500000  )
        13           Al  tau(  13) = (   0.2500000   0.0000000   0.7500000  )
        14           Al  tau(  14) = (   0.0000000   0.2500000   0.7500000  )
        15           Al  tau(  15) = (   0.0000000   0.7500000   0.2500000  )
        16           Al  tau(  16) = (   0.5000000   0.0000000   0.0000000  )
        17           Al  tau(  17) = (   0.2500000   0.2500000   0.5000000  )
        18           Al  tau(  18) = (   0.7500000   0.7500000   0.5000000  )
        19           Al  tau(  19) = (   0.7500000   0.5000000   0.7500000  )
        20           Al  tau(  20) = (   0.2500000   0.5000000   0.2500000  )
        21           Al  tau(  21) = (   0.0000000   0.5000000   0.0000000  )
        22           Al  tau(  22) = (   0.5000000   0.2500000   0.2500000  )
        23           Al  tau(  23) = (   0.5000000   0.7500000   0.7500000  )
        24           Al  tau(  24) = (   0.0000000   0.0000000   0.5000000  )
        25           Al  tau(  25) = (   0.0000000   0.0000000   0.0000000  )
        26           Al  tau(  26) = (   0.7500000   0.2500000   0.5000000  )
        27           Al  tau(  27) = (   0.2500000   0.7500000   0.5000000  )
        28           Al  tau(  28) = (   0.2500000   0.5000000   0.7500000  )
        29           Al  tau(  29) = (   0.7500000   0.5000000   0.2500000  )
        30           Al  tau(  30) = (   0.5000000   0.7500000   0.2500000  )
        31           Al  tau(  31) = (   0.5000000   0.2500000   0.7500000  )
        32           Al  tau(  32) = (   0.0000000   0.5000000   0.5000000  )
        33           Al  tau(  33) = (   0.7500000   0.7500000   0.0000000  )
        34           Al  tau(  34) = (   0.2500000   0.2500000   0.0000000  )
        35           Al  tau(  35) = (   0.2500000   0.0000000   0.2500000  )
        36           Al  tau(  36) = (   0.7500000   0.0000000   0.7500000  )
        37           Al  tau(  37) = (   0.5000000   0.0000000   0.5000000  )
        38           Al  tau(  38) = (   0.0000000   0.7500000   0.7500000  )
        39           Al  tau(  39) = (   0.0000000   0.2500000   0.2500000  )
        40           Al  tau(  40) = (   0.5000000   0.5000000   0.0000000  )
        41           Al  tau(  41) = (   0.8769999   0.1250000   0.1250000  )
        42           Al  tau(  42) = (   0.1230001   0.8750000   0.8750000  )
        43           Al  tau(  43) = (   0.8730001   0.1250000   0.6250000  )
        44           Al  tau(  44) = (   0.1269999   0.8750000   0.3750000  )
        45           Al  tau(  45) = (   0.3730001   0.6250000   0.6250000  )
        46           Al  tau(  46) = (   0.6269999   0.3750000   0.3750000  )
        47           Al  tau(  47) = (   0.3769999   0.6250000   0.1250000  )
        48           Al  tau(  48) = (   0.6230001   0.3750000   0.8750000  )
        49           Al  tau(  49) = (   0.1250000   0.8769999   0.1250000  )
        50           Al  tau(  50) = (   0.8750000   0.1230001   0.8750000  )
        51           Al  tau(  51) = (   0.6250000   0.8730001   0.1250000  )
        52           Al  tau(  52) = (   0.3750000   0.1269999   0.8750000  )
        53           Al  tau(  53) = (   0.6250000   0.3730001   0.6250000  )
        54           Al  tau(  54) = (   0.3750000   0.6269999   0.3750000  )
        55           Al  tau(  55) = (   0.1250000   0.3769999   0.6250000  )
        56           Al  tau(  56) = (   0.8750000   0.6230001   0.3750000  )
        57           Al  tau(  57) = (   0.1250000   0.1250000   0.8769999  )
        58           Al  tau(  58) = (   0.8750000   0.8750000   0.1230001  )
        59           Al  tau(  59) = (   0.1250000   0.6250000   0.8730001  )
        60           Al  tau(  60) = (   0.8750000   0.3750000   0.1269999  )
[...]
       106           O   tau( 106) = (   0.5067300   0.5067300   0.7432700  )
       107           O   tau( 107) = (   0.9932700   0.2567300   0.9932700  )
       108           O   tau( 108) = (   0.0067300   0.7432700   0.0067300  )
       109           O   tau( 109) = (   0.0067300   0.0067300   0.7432700  )
       110           O   tau( 110) = (   0.9932700   0.9932700   0.2567300  )
       111           O   tau( 111) = (   0.5067300   0.7432700   0.5067300  )
       112           O   tau( 112) = (   0.4932700   0.2567300   0.4932700  )
       113           O   tau( 113) = (   0.7567300   0.2567300   0.7567300  )
       114           O   tau( 114) = (   0.2432700   0.7432700   0.2432700  )
       115           O   tau( 115) = (   0.2567300   0.4932700   0.4932700  )
       116           O   tau( 116) = (   0.7432700   0.5067300   0.5067300  )
       117           O   tau( 117) = (   0.7432700   0.0067300   0.0067300  )
       118           O   tau( 118) = (   0.2567300   0.9932700   0.9932700  )
       119           O   tau( 119) = (   0.7567300   0.7567300   0.2567300  )
       120           O   tau( 120) = (   0.2432700   0.2432700   0.7432700  )

     number of k points=    10  Gaussian smearing, width (Ry)=  0.0100
                       cart. coord. in units 2pi/alat
        k(    1) = (   0.1250000   0.1250000   0.1250000), wk =   0.0625000
        k(    2) = (   0.1250000   0.1250000   0.3750000), wk =   0.1875000
        k(    3) = (   0.1250000   0.3750000   0.3750000), wk =   0.1875000
        k(    4) = (   0.3750000   0.3750000   0.3750000), wk =   0.0625000
        k(    5) = (  -0.1250000   0.1250000   0.1250000), wk =   0.1875000
        k(    6) = (  -0.1250000   0.3750000   0.1250000), wk =   0.3750000
        k(    7) = (   0.1250000  -0.3750000   0.1250000), wk =   0.1875000
        k(    8) = (  -0.1250000   0.3750000   0.3750000), wk =   0.1875000
        k(    9) = (   0.1250000   0.3750000  -0.3750000), wk =   0.3750000
        k(   10) = (  -0.3750000   0.3750000   0.3750000), wk =   0.1875000

     Initial potential from superposition of free atoms

     starting charge     455.7984, renormalised to     456.0000
     Starting wfcs are  480 randomized atomic wfcs

     Self-consistent Calculation

     iteration #  1     ecut=    50.00 Ry     beta= 0.40
     CG style diagonalization
     ethr =  1.00E-02,  avg # of iterations =  2.9

     total energy              =   -1316.64147770 Ry
     estimated scf accuracy    <      20.74956886 Ry

[...]

     iteration #  6     ecut=    50.00 Ry     beta= 0.40
     CG style diagonalization
     c_bands:  1 eigenvalues not converged
     ethr =  6.67E-05,  avg # of iterations =  5.3

[...]

     End of self-consistent calculation

          k = 0.1250 0.1250 0.1250 ( 20110 PWs)   bands (ev):

    -1.2279  -0.3411  -0.3410  -0.3410   0.1173   0.1173   0.1173   0.3871
     0.3871   0.3871   0.6687   0.6687   0.6687   0.6790   0.7152   0.7152
     0.7152   0.7936   0.7936   0.7982   0.9181   0.9181   0.9181   1.2436
[...]
         5           Al  tau(   5) = (   0.1673682   0.8366857   0.8366857  )
         6           Al  tau(   6) = (   1.1713434   0.5020259   0.5020259  )
         7           Al  tau(   7) = (   0.8366857   0.8366857   0.1673682  )
         8           Al  tau(   8) = (   0.5020259   0.5020259   1.1713434  )
         9           Al  tau(   9) = (   0.6693558   0.6693558   0.6693558  )
        10           Al  tau(  10) = (   0.3346866   1.0040004   0.0000245  )
        11           Al  tau(  11) = (   1.0040004   0.3346866   0.0000245  )
        12           Al  tau(  12) = (   1.0040004   0.0000245   0.3346866  )
        13           Al  tau(  13) = (   0.3346866   0.0000245   1.0040004  )
        14           Al  tau(  14) = (   0.0000245   0.3346866   1.0040004  )
        15           Al  tau(  15) = (   0.0000245   1.0040004   0.3346866  )
        16           Al  tau(  16) = (   0.6693313   0.0000123   0.0000123  )
        17           Al  tau(  17) = (   0.3346766   0.3346766   0.6693412  )
        18           Al  tau(  18) = (   1.0040350   1.0040350   0.6693704  )
        19           Al  tau(  19) = (   1.0040350   0.6693704   1.0040350  )
        20           Al  tau(  20) = (   0.3346766   0.6693412   0.3346766  )
        21           Al  tau(  21) = (   0.0000123   0.6693313   0.0000123  )
        22           Al  tau(  22) = (   0.6693412   0.3346766   0.3346766  )
        23           Al  tau(  23) = (   0.6693704   1.0040350   1.0040350  )
        24           Al  tau(  24) = (   0.0000123   0.0000123   0.6693313  )
        25           Al  tau(  25) = (   0.0000000   0.0000000  -0.0000000  )
        26           Al  tau(  26) = (   1.0040164   0.3346952   0.6693558  )
        27           Al  tau(  27) = (   0.3346952   1.0040164   0.6693558  )
        28           Al  tau(  28) = (   0.3346952   0.6693558   1.0040164  )
        29           Al  tau(  29) = (   1.0040164   0.6693558   0.3346952  )
        30           Al  tau(  30) = (   0.6693558   1.0040164   0.3346952  )
        31           Al  tau(  31) = (   0.6693558   0.3346952   1.0040164  )
        32           Al  tau(  32) = (   0.0000245   0.6693435   0.6693435  )
        33           Al  tau(  33) = (   1.0040144   1.0040144   0.0000358  )
        34           Al  tau(  34) = (   0.3346726   0.3346726   0.0000133  )
        35           Al  tau(  35) = (   0.3346726   0.0000133   0.3346726  )
        36           Al  tau(  36) = (   1.0040144   0.0000358   1.0040144  )
        37           Al  tau(  37) = (   0.6693435   0.0000245   0.6693435  )
        38           Al  tau(  38) = (   0.0000358   1.0040144   1.0040144  )
        39           Al  tau(  39) = (   0.0000133   0.3346726   0.3346726  )
        40           Al  tau(  40) = (   0.6693435   0.6693435   0.0000245  )
        41           Al  tau(  41) = (   1.1600666   0.1673556   0.1673556  )
        42           Al  tau(  42) = (   0.1786450   1.1713560   1.1713560  )
        43           Al  tau(  43) = (   1.1826081   0.1673659   0.8366867  )
        44           Al  tau(  44) = (   0.1561035   1.1713457   0.5020249  )
        45           Al  tau(  45) = (   0.5132883   0.8366873   0.8366873  )
        46           Al  tau(  46) = (   0.8254233   0.5020243   0.5020243  )
        47           Al  tau(  47) = (   0.4907515   0.8366713   0.1673557  )
        48           Al  tau(  48) = (   0.8479601   0.5020403   1.1713559  )
        49           Al  tau(  49) = (   0.1673556   1.1600666   0.1673556  )
        50           Al  tau(  50) = (   1.1713560   0.1786450   1.1713560  )
        51           Al  tau(  51) = (   0.8366867   1.1826081   0.1673659  )
        52           Al  tau(  52) = (   0.5020249   0.1561035   1.1713457  )
        53           Al  tau(  53) = (   0.8366873   0.5132883   0.8366873  )
        54           Al  tau(  54) = (   0.5020243   0.8254233   0.5020243  )
        55           Al  tau(  55) = (   0.1673557   0.4907515   0.8366713  )
        56           Al  tau(  56) = (   1.1713559   0.8479601   0.5020403  )
        57           Al  tau(  57) = (   0.1673556   0.1673556   1.1600666  )
        58           Al  tau(  58) = (   1.1713560   1.1713560   0.1786450  )
        59           Al  tau(  59) = (   0.1673659   0.8366867   1.1826081  )
        60           Al  tau(  60) = (   1.1713457   0.5020249   0.1561035  )
[...]
       106           O   tau( 106) = (   0.7184085   0.7184085   0.9549418  )
       107           O   tau( 107) = (   1.2896297   0.3837671   1.2896297  )
       108           O   tau( 108) = (   0.0490819   0.9549445   0.0490819  )
       109           O   tau( 109) = (   0.0490819   0.0490819   0.9549445  )
       110           O   tau( 110) = (   1.2896297   1.2896297   0.3837671  )
       111           O   tau( 111) = (   0.7184085   0.9549418   0.7184085  )
       112           O   tau( 112) = (   0.6203031   0.3837698   0.6203031  )
       113           O   tau( 113) = (   1.0530862   0.3837666   1.0530862  )
       114           O   tau( 114) = (   0.2856254   0.9549450   0.2856254  )
       115           O   tau( 115) = (   0.3837698   0.6203031   0.6203031  )
       116           O   tau( 116) = (   0.9549418   0.7184085   0.7184085  )
       117           O   tau( 117) = (   0.9549445   0.0490819   0.0490819  )
       118           O   tau( 118) = (   0.3837671   1.2896297   1.2896297  )
       119           O   tau( 119) = (   1.0530862   1.0530862   0.3837666  )
       120           O   tau( 120) = (   0.2856254   0.2856254   0.9549450  )

     number of k points=    10  Gaussian smearing, width (Ry)=  0.0100
                       cart. coord. in units 2pi/alat
        k(    1) = (   0.0933734   0.0933734   0.0933734), wk =   0.0625000
        k(    2) = (   0.0933699   0.0933699   0.2801269), wk =   0.1875000
        k(    3) = (   0.0933665   0.2801235   0.2801235), wk =   0.1875000
        k(    4) = (   0.2801201   0.2801201   0.2801201), wk =   0.0625000
        k(    5) = (  -0.0933802   0.0933768   0.0933768), wk =   0.1875000
        k(    6) = (  -0.0933836   0.2801304   0.0933734), wk =   0.3750000
        k(    7) = (   0.0933802  -0.2801338   0.0933802), wk =   0.1875000
        k(    8) = (  -0.0933871   0.2801269   0.2801269), wk =   0.1875000
        k(    9) = (   0.0933768   0.2801338  -0.2801372), wk =   0.3750000
        k(   10) = (  -0.2801406   0.2801304   0.2801304), wk =   0.1875000

     Initial potential from superposition of free atoms

     starting charge     455.7984, renormalised to     456.0000
     Starting wfcs are  480 randomized atomic wfcs

     Self-consistent Calculation

[...]

     iteration # 15     ecut=    50.00 Ry     beta= 0.40
     CG style diagonalization
     c_bands:  1 eigenvalues not converged
     ethr =  3.95E-08,  avg # of iterations =  4.2

[...]

     total energy              =   -1470.40591884 Ry
     estimated scf accuracy    <       0.00000466 Ry

     iteration # 24     ecut=    50.00 Ry     beta= 0.40
     CG style diagonalization
     ethr =  1.02E-09,  avg # of iterations =  3.7

     End of self-consistent calculation

[...]

          k = 0.0934 0.2801-0.2801 ( 48349 PWs)   bands (ev):

[...]

          k =-0.2801 0.2801 0.2801 ( 48296 PWs)   bands (ev):

    -8.7855  -8.7499  -8.7499  -8.7499  -8.5311  -8.5310  -8.5310  -8.4967
    -7.7526  -7.7520  -7.7520  -7.7438  -7.6602  -7.6602  -7.6598  -7.6488
    -7.6482  -7.6380  -7.6380  -7.6379  -7.6067  -7.6066  -7.6065  -7.5974
    -7.5968  -7.5867  -7.5866  -7.5862  -7.5217  -7.5212  -7.5212  -7.5210
     0.6906   0.7503   0.7504   0.7504   1.0881   1.1328   1.1328   1.1329
     1.1734   1.1735   1.2558   1.2558   1.2559   1.3299   1.3299   1.3299
     1.6177   1.6178   1.6178   1.6718   1.6718   1.7190   1.7190   1.7191
     2.2939   2.2939   2.2939   2.5160   3.1783   3.1783   3.1784   3.3547
     3.3548   3.3549   3.3830   3.3833   3.4466   3.4467   3.4467   3.5977
     3.9757   3.9759   3.9759   4.0304   4.0305   4.0306   4.0616   4.0617
     4.2880   4.4794   4.4797   4.4797   4.7134   4.7134   4.7135   4.7849
     4.7852   4.8070   4.8071   4.8072   4.8888   4.8888   4.8889   5.0079
     5.0745   5.0746   5.0746   5.0836   5.1393   5.1393   5.1397   5.2290
     5.2294   5.2330   5.2332   5.2332   5.5539   5.5539   5.5539   5.6777
     5.6778   5.6989   5.6990   5.6990   5.8093   5.9400   5.9644   5.9645
     5.9646   6.0603   6.0603   6.0605   6.2138   6.2138   6.2139   6.2381
     6.2384   6.2712   6.2712   6.2714   6.5351   6.8314   6.8314   6.8314
     7.6652   7.6652   7.6655   7.6939   7.6943   7.7666   7.7947   7.7948
     7.7948   7.8732   7.8733   7.8733   8.1578   8.1579   8.1579   8.1926
     8.2125   8.2126   8.2128   8.2437   8.2795   8.2795   8.3995   8.3995
     8.3996   8.6625   8.6630   8.6630   8.8599   8.8601   8.9211   8.9213
     8.9214   8.9483   8.9483   8.9484   8.9945   9.0241   9.0244   9.0245
     9.1529   9.1534   9.1820   9.1821   9.1821   9.1997   9.1997   9.1998
     9.3373   9.3375   9.3375   9.6019   9.8826   9.8827   9.8828   9.9730
     9.9731   9.9803   9.9804   9.9805  10.1253  10.1253  10.1255  10.2467
    10.2468  10.2660  10.2661  10.2663  10.3769  10.3769  10.3771  10.4197
    10.4201  10.4202  10.5595  10.6097  10.6098  10.6098  10.6305  10.6307
    10.6307  10.7523  10.7760  10.7761  11.6035  11.6037  11.6037  11.6117
    11.6119  11.6120  11.6732  11.6732  11.7375  12.0146  12.0148  12.0149
    12.3342  12.3344  12.3344  12.4262  12.4262  12.4578  12.4579  12.4580
    12.5080  12.5081  12.5082  12.6784  12.6784  12.6787  12.8368  12.8373
    13.1340  13.3465  13.3467  13.3468  13.3857  13.3858  13.3859  13.6181
    13.6182  13.6442  13.6443  13.6444  13.6621  13.6623  13.6623  13.6659
    13.6664  13.8542  13.9465  13.9466  13.9467  14.2436  14.2439  14.2440
    14.5388  14.7617

     the Fermi energy is    11.6753 ev

!    total energy              =   -1470.40591921 Ry
     estimated scf accuracy    <       0.00000073 Ry
     smearing contrib. (-TS)   =      -0.01620345 Ry
     internal energy E=F+TS    =   -1470.38971576 Ry

     The total energy is F=E-TS. E is the sum of the following terms:
     one-electron contribution =    -175.10371340 Ry
     hartree contribution      =     420.70624563 Ry
     xc contribution           =    -486.63845225 Ry
     ewald contribution        =   -1229.35379574 Ry

     convergence has been achieved in  24 iterations

     Forces acting on atoms (cartesian axes, Ry/au):

     atom    1 type  1   force =    -0.00004786   -0.00004786   -0.00004786
     atom    2 type  1   force =     0.00004786    0.00004786    0.00004786
     atom    3 type  1   force =    -0.00004739   -0.00004871   -0.00004739
     atom    4 type  1   force =     0.00004739    0.00004871    0.00004739
     atom    5 type  1   force =    -0.00004871   -0.00004739   -0.00004739
     atom    6 type  1   force =     0.00004871    0.00004739    0.00004739
     atom    7 type  1   force =    -0.00004739   -0.00004739   -0.00004871
     atom    8 type  1   force =     0.00004739    0.00004739    0.00004871
     atom    9 type  1   force =    -0.00000000   -0.00000000    0.00000000
     atom   10 type  1   force =     0.00000071   -0.00000071   -0.00000000
     atom   11 type  1   force =    -0.00000071    0.00000071    0.00000000
     atom   12 type  1   force =    -0.00000071   -0.00000000    0.00000071
     atom   13 type  1   force =     0.00000071    0.00000000   -0.00000071
     atom   14 type  1   force =     0.00000000    0.00000071   -0.00000071
     atom   15 type  1   force =    -0.00000000   -0.00000071    0.00000071
     atom   16 type  1   force =    -0.00000000   -0.00000000    0.00000000
     atom   17 type  1   force =    -0.00000017   -0.00000017    0.00004848
     atom   18 type  1   force =     0.00000017    0.00000017   -0.00004848
     atom   19 type  1   force =     0.00000017   -0.00004848    0.00000017
     atom   20 type  1   force =    -0.00000017    0.00004848   -0.00000017
     atom   21 type  1   force =    -0.00000000    0.00000000    0.00000000
     atom   22 type  1   force =     0.00004848   -0.00000017   -0.00000017
     atom   23 type  1   force =    -0.00004848    0.00000017    0.00000017
     atom   24 type  1   force =     0.00000000   -0.00000000    0.00000000
     atom   25 type  1   force =     0.00000000   -0.00000000   -0.00000000
     atom   26 type  1   force =     0.00000199   -0.00000199   -0.00000000
     atom   27 type  1   force =    -0.00000199    0.00000199    0.00000000
     atom   28 type  1   force =    -0.00000199   -0.00000000    0.00000199
     atom   29 type  1   force =     0.00000199    0.00000000   -0.00000199
     atom   30 type  1   force =     0.00000000    0.00000199   -0.00000199
     atom   31 type  1   force =    -0.00000000   -0.00000199    0.00000199
     atom   32 type  1   force =     0.00000000   -0.00000000   -0.00000000
     atom   33 type  1   force =    -0.00000050   -0.00000050   -0.00000088
     atom   34 type  1   force =     0.00000050    0.00000050    0.00000088
     atom   35 type  1   force =     0.00000050    0.00000088    0.00000050
     atom   36 type  1   force =    -0.00000050   -0.00000088   -0.00000050
     atom   37 type  1   force =    -0.00000000    0.00000000   -0.00000000
     atom   38 type  1   force =    -0.00000088   -0.00000050   -0.00000050
     atom   39 type  1   force =     0.00000088    0.00000050    0.00000050
     atom   40 type  1   force =    -0.00000000    0.00000000    0.00000000
     atom   41 type  1   force =    -0.00172142    0.00002835    0.00002835
     atom   42 type  1   force =     0.00172142   -0.00002835   -0.00002835
     atom   43 type  1   force =     0.00182882    0.00004950    0.00004947
     atom   44 type  1   force =    -0.00182882   -0.00004950   -0.00004947
     atom   45 type  1   force =     0.00185040    0.00007146    0.00007146
     atom   46 type  1   force =    -0.00185040   -0.00007146   -0.00007146
     atom   47 type  1   force =    -0.00171833    0.00002184    0.00003642
     atom   48 type  1   force =     0.00171833   -0.00002184   -0.00003642
     atom   49 type  1   force =     0.00002835   -0.00172142    0.00002835
     atom   50 type  1   force =    -0.00002835    0.00172142   -0.00002835
     atom   51 type  1   force =     0.00004947    0.00182882    0.00004950
     atom   52 type  1   force =    -0.00004947   -0.00182882   -0.00004950
     atom   53 type  1   force =     0.00007146    0.00185040    0.00007146
     atom   54 type  1   force =    -0.00007146   -0.00185040   -0.00007146
     atom   55 type  1   force =     0.00003642   -0.00171833    0.00002184
     atom   56 type  1   force =    -0.00003642    0.00171833   -0.00002184
     atom   57 type  1   force =     0.00002835    0.00002835   -0.00172142
     atom   58 type  1   force =    -0.00002835   -0.00002835    0.00172142
     atom   59 type  1   force =     0.00004950    0.00004947    0.00182882
     atom   60 type  1   force =    -0.00004950   -0.00004947   -0.00182882
[...]
     atom  106 type  2   force =     0.01621013    0.01621013   -0.01624787
     atom  107 type  2   force =    -0.01622628    0.01622612   -0.01622628
     atom  108 type  2   force =     0.01622628   -0.01622612    0.01622628
     atom  109 type  2   force =     0.01622628    0.01622628   -0.01622612
     atom  110 type  2   force =    -0.01622628   -0.01622628    0.01622612
     atom  111 type  2   force =     0.01621013   -0.01624787    0.01621013
     atom  112 type  2   force =    -0.01621013    0.01624787   -0.01621013
     atom  113 type  2   force =     0.01623444    0.01623302    0.01623444
     atom  114 type  2   force =    -0.01623444   -0.01623302   -0.01623444
     atom  115 type  2   force =     0.01624787   -0.01621013   -0.01621013
     atom  116 type  2   force =    -0.01624787    0.01621013    0.01621013
     atom  117 type  2   force =    -0.01622612    0.01622628    0.01622628
     atom  118 type  2   force =     0.01622612   -0.01622628   -0.01622628
     atom  119 type  2   force =     0.01623444    0.01623444    0.01623302
     atom  120 type  2   force =    -0.01623444   -0.01623444   -0.01623302

     Total force =     0.159490     Total SCF correction =     0.001296

     Computing stress (Cartesian axis) and pressure

          total   stress  (Ry/bohr**3)                   (kbar)     P=      732.64
   0.00498041  -0.00000071  -0.00000071          732.64       -0.11       -0.11
  -0.00000071   0.00498041  -0.00000071           -0.11      732.64       -0.11
  -0.00000071  -0.00000071   0.00498041           -0.11       -0.11      732.64

     Writing all to output data dir ./pwscf.save/

     General routines

     Parallel routines

   This run was terminated on:  20:40:12  30Jan2023

   JOB DONE.