     Program PWSCF v.7.0 starts on 30Jan2023 at 22:13:41

     R & G space division:  proc/nbgrp/npool/nimage =      60

     Reading input from al2o3_100.in

     Current dimensions of program PWSCF are:
     Max number of different atomic species (ntypx) = 10
     Max number of k-points (npk) =  40000
     Max angular momentum in pseudopotentials (lmaxx) =  4

     File ./pwscf.update deleted, as requested
     Found identity + ( -0.2500 -0.5000  0.0000) symmetry
     This is a supercell, fractional translations are disabled

     Subspace diagonalization in iterative solution of the eigenvalue problem:
     a serial algorithm will be used

     Using Slab Decomposition

     bravais-lattice index     =            0
     lattice parameter (alat)  =      30.0020  a.u.
     unit-cell volume          =   22976.2346 (a.u.)^3
     number of atoms/cell      =          240
     number of atomic types    =            2
     number of electrons       =       912.00
     number of Kohn-Sham states=          547
     kinetic-energy cutoff     =      50.0000  Ry
     charge density cutoff     =     500.0000  Ry
     scf convergence threshold =      1.0E-04
     mixing beta               =       0.4000
     number of iterations used =            8  local-TF  mixing
     energy convergence thresh.=      1.0E-04
     force convergence thresh. =      1.0E-03
     press convergence thresh. =      5.0E-01
     Exchange-correlation= PBE
                           (   1   4   3   4   0   0   0)
     nstep                     =          100

     celldm(1)=  30.002048  celldm(2)=   0.000000  celldm(3)=   0.000000
     celldm(4)=   0.000000  celldm(5)=   0.000000  celldm(6)=   0.000000

     crystal axes: (cart. coord. in units of alat)
               a(1) = (   1.000000   0.000000   0.000000 )
               a(2) = (   0.000000   0.500000   0.000000 )
               a(3) = (   0.000000   0.000000   1.701595 )

     reciprocal axes: (cart. coord. in units 2 pi/alat)
               b(1) = (  1.000000  0.000000  0.000000 )
               b(2) = (  0.000000  2.000000  0.000000 )
               b(3) = (  0.000000  0.000000  0.587684 )

     PseudoPot. # 1 for Al read from file:
     ./Al.pbe-nl-rrkjus_psl.1.0.0.UPF
     MD5 check sum: 6db8691240a1c860ce6448702d298c4b
     Pseudo is Ultrasoft + core correction, Zval =  3.0
     Generated using &quot;atomic&quot; code by A. Dal Corso  v.6.3
     Using radial grid of 1135 points,  4 beta functions with:
                l(1) =   0
                l(2) =   0
                l(3) =   1
                l(4) =   1
     Q(r) pseudized with 0 coefficients

     PseudoPot. # 2 for O  read from file:
     ./O.pbe-n-rrkjus_psl.1.0.0.UPF
     MD5 check sum: 91400c9766925bcf19f520983a725ff0
     Pseudo is Ultrasoft + core correction, Zval =  6.0
     Generated using &quot;atomic&quot; code by A. Dal Corso  v.6.3MaX
     Using radial grid of 1095 points,  4 beta functions with:
                l(1) =   0
                l(2) =   0
                l(3) =   1
                l(4) =   1
     Q(r) pseudized with 0 coefficients

     atomic species   valence    mass     pseudopotential
        Al             3.00    26.98154     Al( 1.00)
        O              6.00    15.99940     O ( 1.00)

     No symmetry found

   Cartesian axes

     site n.     atom                  positions (alat units)
         1           O   tau(   1) = (   0.3783650   0.1283650   1.0717307  )
         2           O   tau(   2) = (   0.4966350   0.2466350   1.0717307  )
         3           O   tau(   3) = (   0.1283650   0.3783650   1.0717307  )
         4           O   tau(   4) = (   0.2466350   0.4966350   1.0717307  )
         5           Al  tau(   5) = (   0.1250000   0.0000000   1.0683657  )
         6           Al  tau(   6) = (   0.3750000   0.0000000   1.0683657  )
         7           Al  tau(   7) = (   0.0000000   0.1250000   1.0683657  )
         8           Al  tau(   8) = (   0.2500000   0.1250000   1.0683657  )
         9           Al  tau(   9) = (   0.1250000   0.2500000   1.0683657  )
        10           Al  tau(  10) = (   0.3750000   0.2500000   1.0683657  )
        11           Al  tau(  11) = (   0.0000000   0.3750000   1.0683657  )
        12           Al  tau(  12) = (   0.2500000   0.3750000   1.0683657  )
        13           O   tau(  13) = (   0.0033650   0.0033650   1.0650007  )
        14           O   tau(  14) = (   0.1216350   0.1216350   1.0650007  )
        15           O   tau(  15) = (   0.2533650   0.2533650   1.0650007  )
        16           O   tau(  16) = (   0.3716350   0.3716350   1.0650007  )
        17           Al  tau(  17) = (   0.1875000   0.1875000   1.0068657  )
        18           Al  tau(  18) = (   0.4375000   0.4375000   1.0068657  )
        19           Al  tau(  19) = (   0.1885000   0.0625000   1.0058657  )
        20           Al  tau(  20) = (   0.3125000   0.0625000   1.0058657  )
        21           Al  tau(  21) = (   0.4365000   0.0625000   1.0058657  )
        22           Al  tau(  22) = (   0.3125000   0.1865000   1.0058657  )
        23           Al  tau(  23) = (   0.0625000   0.1885000   1.0058657  )
        24           Al  tau(  24) = (   0.0625000   0.3125000   1.0058657  )
        25           Al  tau(  25) = (   0.1865000   0.3125000   1.0058657  )
        26           Al  tau(  26) = (   0.4385000   0.3125000   1.0058657  )
        27           Al  tau(  27) = (   0.0625000   0.4365000   1.0058657  )
        28           Al  tau(  28) = (   0.3125000   0.4385000   1.0058657  )
        29           Al  tau(  29) = (   0.4375000   0.1875000   1.0048657  )
        30           Al  tau(  30) = (   0.1875000   0.4375000   1.0048657  )
        31           O   tau(  31) = (   0.1216350   0.0033650   0.9467307  )
        32           O   tau(  32) = (   0.0033650   0.1216350   0.9467307  )
        33           O   tau(  33) = (   0.3716350   0.2533650   0.9467307  )
        34           O   tau(  34) = (   0.2533650   0.3716350   0.9467307  )
        35           Al  tau(  35) = (   0.0000000   0.0000000   0.9433657  )
        36           Al  tau(  36) = (   0.2500000   0.0000000   0.9433657  )
        37           Al  tau(  37) = (   0.1250000   0.1250000   0.9433657  )
        38           Al  tau(  38) = (   0.3750000   0.1250000   0.9433657  )
        39           Al  tau(  39) = (   0.0000000   0.2500000   0.9433657  )
        40           Al  tau(  40) = (   0.2500000   0.2500000   0.9433657  )
        41           Al  tau(  41) = (   0.1250000   0.3750000   0.9433657  )
        42           Al  tau(  42) = (   0.3750000   0.3750000   0.9433657  )
        43           O   tau(  43) = (   0.2466350   0.1283650   0.9400007  )
        44           O   tau(  44) = (   0.1283650   0.2466350   0.9400007  )
        45           O   tau(  45) = (   0.4966350   0.3783650   0.9400007  )
        46           O   tau(  46) = (   0.3783650   0.4966350   0.9400007  )
        47           Al  tau(  47) = (   0.3125000   0.0625000   0.8818657  )
        48           Al  tau(  48) = (   0.0625000   0.3125000   0.8818657  )
        49           Al  tau(  49) = (   0.1875000   0.0615000   0.8808657  )
        50           Al  tau(  50) = (   0.4375000   0.0635000   0.8808657  )
        51           Al  tau(  51) = (   0.0615000   0.1875000   0.8808657  )
        52           Al  tau(  52) = (   0.3135000   0.1875000   0.8808657  )
        53           Al  tau(  53) = (   0.4375000   0.1875000   0.8808657  )
        54           Al  tau(  54) = (   0.4375000   0.3115000   0.8808657  )
        55           Al  tau(  55) = (   0.1875000   0.3135000   0.8808657  )
        56           Al  tau(  56) = (   0.0635000   0.4375000   0.8808657  )
        57           Al  tau(  57) = (   0.1875000   0.4375000   0.8808657  )
        58           Al  tau(  58) = (   0.3115000   0.4375000   0.8808657  )
        59           Al  tau(  59) = (   0.0625000   0.0625000   0.8798657  )
        60           Al  tau(  60) = (   0.3125000   0.3125000   0.8798657  )
[...]
       226           O   tau( 226) = (   0.6283650   0.4966350   0.6900007  )
       227           Al  tau( 227) = (   0.5625000   0.0625000   0.6318657  )
       228           Al  tau( 228) = (   0.8125000   0.3125000   0.6318657  )
       229           Al  tau( 229) = (   0.9375000   0.0615000   0.6308657  )
       230           Al  tau( 230) = (   0.6875000   0.0635000   0.6308657  )
       231           Al  tau( 231) = (   0.5635000   0.1875000   0.6308657  )
       232           Al  tau( 232) = (   0.6875000   0.1875000   0.6308657  )
       233           Al  tau( 233) = (   0.8115000   0.1875000   0.6308657  )
       234           Al  tau( 234) = (   0.6875000   0.3115000   0.6308657  )
       235           Al  tau( 235) = (   0.9375000   0.3135000   0.6308657  )
       236           Al  tau( 236) = (   0.5615000   0.4375000   0.6308657  )
       237           Al  tau( 237) = (   0.8135000   0.4375000   0.6308657  )
       238           Al  tau( 238) = (   0.9375000   0.4375000   0.6308657  )
       239           Al  tau( 239) = (   0.8125000   0.0625000   0.6298657  )
       240           Al  tau( 240) = (   0.5625000   0.3125000   0.6298657  )

     number of k points=     6  Methfessel-Paxton smearing, width (Ry)=  0.0100
                       cart. coord. in units 2pi/alat
        k(    1) = (   0.0000000   0.0000000   0.0000000), wk =   0.2500000
        k(    2) = (   0.0000000   0.5000000   0.0000000), wk =   0.5000000
        k(    3) = (   0.0000000  -1.0000000   0.0000000), wk =   0.2500000
        k(    4) = (  -0.5000000   0.0000000   0.0000000), wk =   0.2500000
        k(    5) = (  -0.5000000   0.5000000   0.0000000), wk =   0.5000000
        k(    6) = (  -0.5000000  -1.0000000   0.0000000), wk =   0.2500000

     Initial potential from superposition of free atoms

     starting charge     911.5968, renormalised to     912.0000

     negative rho (up, down):  3.638E-03 0.000E+00
     Starting wfcs are  960 randomized atomic wfcs

     Self-consistent Calculation

     iteration #  1     ecut=    50.00 Ry     beta= 0.40
     CG style diagonalization
     ethr =  1.00E-02,  avg # of iterations =  2.9

     negative rho (up, down):  6.028E-07 0.000E+00

     total energy              =   -2678.52117850 Ry
     estimated scf accuracy    <     232.98954856 Ry

[...]

     iteration # 20     ecut=    50.00 Ry     beta= 0.40
     CG style diagonalization
     c_bands:  2 eigenvalues not converged
     ethr =  6.64E-05,  avg # of iterations =  3.9

[...]

     End of self-consistent calculation

          k = 0.0000 0.0000 0.0000 (137301 PWs)   bands (ev):

   -25.3743 -25.0775 -25.0775 -24.5763 -24.4454 -24.4073 -24.4064 -24.4063
   -24.2648 -24.1079 -24.0822 -24.0821 -24.0065 -24.0064 -23.8632 -23.8357
   -23.7510 -23.7476 -23.7476 -23.7383 -23.6708 -23.6708 -23.6526 -23.6314
   -23.6149 -23.6037 -23.5892 -23.5190 -23.4372 -23.4371 -23.3897 -23.3897
   -23.3638 -23.3638 -23.2698 -23.2682 -23.1667 -23.1666 -23.1303 -23.0573
   -23.0386 -22.9529 -22.9529 -22.8174 -22.7631 -22.6001 -22.6001 -22.4811
   -21.4948 -21.3458 -21.3457 -21.0457 -20.9981 -20.9764 -20.9763 -20.9703
[...]
    -2.8023  -2.8023  -2.7521  -2.7520  -2.4810  -2.4809  -2.3876  -2.3876
    -1.6554  -1.6553  -1.4846  -1.4845  -1.0502  -1.0501  -1.0375  -1.0374
    -0.3662  -0.3662  -0.3335  -0.3335  -0.3308  -0.3307  -0.3135  -0.3135
     0.0725   0.0726   0.0773   0.0773   0.5466   0.5466   0.5754   0.5754
     0.8606   0.8607   0.8790   0.8791   1.1185   1.1185   1.1504   1.1504
     1.1966   1.1966   1.2726   1.2726   1.3199   1.3199   1.5656   1.5656
     1.5820   1.5820   1.7765   1.7765   1.8230   1.8231   1.8580   1.8580
     2.0206   2.0207   2.1586   2.1586   2.2058   2.2058   2.2854   2.2854
     2.3916   2.3916   2.3946   2.3946   2.5877   2.5877   2.6838   2.6838
     2.8331   2.8331   2.8464   2.8464   2.9626   2.9626   3.0705   3.0705
     3.2813   3.2813   3.3433   3.3433   3.4016   3.4016   3.4551   3.4551
     3.5676   3.5676   3.7034   3.7034   3.7113   3.7113   3.7639   3.7639
     3.8826   3.8827   3.9010   3.9010   3.9646   3.9646   3.9791   3.9791
     4.0807   4.0807   4.1165   4.1165   4.1275   4.1275   4.1817   4.1817
     4.2439   4.2439   4.2659   4.2659   4.2822   4.2823   4.3348   4.3348
     4.3888   4.3888   4.4157   4.4157   4.5284   4.5284   4.6877   4.6877
     4.7263   4.7263   4.7878   4.7878   4.8253   4.8253   4.9355   4.9355
     4.9375   4.9375   4.9851   4.9851   5.0289   5.0289   5.0730   5.0730
     5.1306   5.1306   5.1833   5.1833   5.2158   5.2158   5.2284   5.2284
     5.3036   5.3036   5.3251   5.3252   5.3463   5.3463   5.4461   5.4461
     5.4784   5.4784   5.5710   5.5710   5.6164   5.6165   5.6396   5.6396
     5.7211   5.7211   5.8024   5.8024   5.8680   5.8680   5.8847   5.8848
     5.9354   5.9354   5.9801   5.9801   6.0879   6.0880   6.1106   6.1106
     6.1250   6.1250   6.1829   6.1829   6.2583   6.2584   6.3089   6.3089
     6.3617   6.3617   6.4810   6.4810   6.5290   6.5290   6.5304   6.5304
     6.6696   6.6697   6.6839   6.6858   6.7128   6.7132   6.7600   6.7600
     6.8236   6.8237   6.8931   6.8939   6.9347   6.9351   6.9732   6.9733
     6.9743   6.9744   7.0084   7.0086   7.0965   7.0967   7.0968   7.0975
     7.1827   7.1829   7.2142   7.2151   7.3291   7.3307   7.3459   7.3460
     7.3888   7.3892   7.4251   7.4263   7.4711   7.4717   7.6233   7.6248
     7.6283   7.6284   7.6584   7.6593   7.7782   7.7793   7.7805   7.7803
     7.8409   7.8421   7.9156   7.9161   7.9532   7.9537   8.0191   8.0203
     8.0398   8.0417   8.1819   8.1826   8.1871   8.1886   8.2349   8.2381
     8.2486   8.2519   8.3415   8.3436   8.3580   8.3649   8.4185   8.4219
     8.5274   8.5310   8.5585   8.5597   8.5699   8.5832   8.6215   8.6265
     8.6915   8.7501   8.7852   8.7891   8.8447   8.8858   8.8922   8.9052
     8.9244   9.0257   9.1125

     the Fermi energy is     6.5227 ev

!    total energy              =   -2725.30517572 Ry
     estimated scf accuracy    <       0.00006092 Ry
     smearing contrib. (-TS)   =      -0.00098960 Ry
     internal energy E=F+TS    =   -2725.30418612 Ry

     The total energy is F=E-TS. E is the sum of the following terms:
     one-electron contribution =  -93123.84788142 Ry
     hartree contribution      =   46969.68330537 Ry
     xc contribution           =   -1110.03750380 Ry
     ewald contribution        =   44538.89789373 Ry

     convergence has been achieved in  29 iterations

[...]

     Forces acting on atoms (cartesian axes, Ry/au):

     atom    1 type  2   force =     0.05043913    0.05043052    0.61370332
     atom    2 type  2   force =    -0.05037817   -0.05039265    0.61366378
     atom    3 type  2   force =     0.05040418    0.05042485    0.61368485
     atom    4 type  2   force =    -0.05041953   -0.05041700    0.61373692
     atom    5 type  1   force =    -0.35060325    0.35058283    1.25703436
     atom    6 type  1   force =    -0.02398585    0.02399773    1.61567486
     atom    7 type  1   force =     0.35059383   -0.35059575    1.25704129
     atom    8 type  1   force =     0.02399824   -0.02397902    1.61569588
     atom    9 type  1   force =    -0.02397197    0.02400247    1.61568271
     atom   10 type  1   force =    -0.35061126    0.35060580    1.25706628
     atom   11 type  1   force =     0.02398929   -0.02398216    1.61565504
     atom   12 type  1   force =     0.35058926   -0.35059745    1.25704190
     atom   13 type  2   force =     0.23301087    0.23291307    0.35230467
     atom   14 type  2   force =    -0.23301696   -0.23295276    0.35235371
     atom   15 type  2   force =     0.23299301    0.23298039    0.35231518
     atom   16 type  2   force =    -0.23298657   -0.23301930    0.35234054
     atom   17 type  1   force =     0.00000186    0.00003060    0.11242645
     atom   18 type  1   force =    -0.00000262    0.00000018    0.11243274
     atom   19 type  1   force =    -0.14858341   -0.00722244    0.25276040
     atom   20 type  1   force =     0.00001422    0.00000270    0.27232102
     atom   21 type  1   force =     0.14857932    0.00720177    0.25278110
     atom   22 type  1   force =     0.00721865    0.14858952    0.25275568
     atom   23 type  1   force =    -0.00723756   -0.14857859    0.25274295
     atom   24 type  1   force =    -0.00000915    0.00001127    0.27230626
     atom   25 type  1   force =     0.14858630    0.00722158    0.25274672
     atom   26 type  1   force =    -0.14861171   -0.00721761    0.25275348
     atom   27 type  1   force =     0.00721370    0.14858535    0.25275601
     atom   28 type  1   force =    -0.00722415   -0.14858927    0.25275271
     atom   29 type  1   force =    -0.00002052   -0.00000526    0.29108083
     atom   30 type  1   force =    -0.00001179   -0.00001948    0.29107831
     atom   31 type  2   force =    -0.33227004    0.33229153    0.26060009
     atom   32 type  2   force =     0.33229296   -0.33229258    0.26064167
     atom   33 type  2   force =    -0.33228245    0.33231323    0.26063687
     atom   34 type  2   force =     0.33227668   -0.33227808    0.26059152
     atom   35 type  1   force =    -0.00455209   -0.00457837   -0.00238777
     atom   36 type  1   force =     0.00540097    0.00538079   -0.00383958
     atom   37 type  1   force =     0.00456027    0.00455502   -0.00241872
     atom   38 type  1   force =    -0.00542557   -0.00541264   -0.00384690
     atom   39 type  1   force =     0.00543233    0.00541808   -0.00381314
     atom   40 type  1   force =    -0.00457234   -0.00455431   -0.00240669
     atom   41 type  1   force =    -0.00540242   -0.00540158   -0.00383591
     atom   42 type  1   force =     0.00454660    0.00456974   -0.00241449
     atom   43 type  2   force =    -0.29562731    0.29569840   -0.40237359
     atom   44 type  2   force =     0.29565274   -0.29565024   -0.40237683
     atom   45 type  2   force =    -0.29561618    0.29567501   -0.40238021
     atom   46 type  2   force =     0.29565864   -0.29564748   -0.40241676
     atom   47 type  1   force =    -0.00000558    0.00000319   -0.16598215
     atom   48 type  1   force =     0.00001561    0.00000608   -0.16594383
     atom   49 type  1   force =     0.00231163    0.15798246    0.00383739
     atom   50 type  1   force =    -0.00232227   -0.15797242    0.00381800
     atom   51 type  1   force =     0.15799646    0.00231201    0.00386138
     atom   52 type  1   force =    -0.15797373   -0.00231600    0.00384411
     atom   53 type  1   force =     0.00001702    0.00001784    0.01909592
     atom   54 type  1   force =     0.00230381    0.15797122    0.00385007
     atom   55 type  1   force =    -0.00230933   -0.15795535    0.00384824
     atom   56 type  1   force =    -0.15795825   -0.00232144    0.00388182
     atom   57 type  1   force =     0.00001419   -0.00002466    0.01913672
     atom   58 type  1   force =     0.15796442    0.00231774    0.00382367
     atom   59 type  1   force =    -0.00002845   -0.00000593    0.17142122
     atom   60 type  1   force =    -0.00002742    0.00001666    0.17141529
[...]
     atom  226 type  2   force =     0.24512880   -0.24516794   -0.44079456
     atom  227 type  1   force =    -0.00000742   -0.00001818   -1.13744434
     atom  228 type  1   force =     0.00000741    0.00000733   -1.13744071
     atom  229 type  1   force =    -0.00006206    0.24862079   -1.14009723
     atom  230 type  1   force =     0.00006427   -0.24862701   -1.14006877
     atom  231 type  1   force =    -0.24862255    0.00005143   -1.14012237
     atom  232 type  1   force =     0.00000760   -0.00001928   -1.12287377
     atom  233 type  1   force =     0.24862312   -0.00006736   -1.14008482
     atom  234 type  1   force =    -0.00005210    0.24862355   -1.14010575
     atom  235 type  1   force =     0.00005429   -0.24862749   -1.14009395
     atom  236 type  1   force =     0.24862161   -0.00003934   -1.14009004
     atom  237 type  1   force =    -0.24862238    0.00005779   -1.14010059
     atom  238 type  1   force =    -0.00001427   -0.00000280   -1.12288106
     atom  239 type  1   force =    -0.00001226   -0.00000394   -0.97104019
     atom  240 type  1   force =     0.00000324    0.00000738   -0.97105892

     Total force =     9.684186     Total SCF correction =     0.008337

     Computing stress (Cartesian axis) and pressure

     negative rho (up, down):  4.627E-03 0.000E+00
          total   stress  (Ry/bohr**3)                   (kbar)     P=     3058.05
   0.02134090  -0.00011061   0.00000001         3139.35      -16.27        0.00
  -0.00011061   0.02134092   0.00000000          -16.27     3139.36        0.00
   0.00000001   0.00000000   0.01968276            0.00        0.00     2895.43

     Energy error            =      2.0E+01 Ry
     Gradient error          =      1.6E+00 Ry/Bohr
     Cell gradient error     =      3.1E+03 kbar

     number of scf cycles    =   2
     number of bfgs steps    =   1

     enthalpy           old  =   -2705.2502938019 Ry
     enthalpy           new  =   -2725.3051757200 Ry

     CASE: enthalpy          _new < enthalpy          _old

     new trust radius        =       0.7499999967 bohr
     new conv_thr            =       0.0001000000 Ry

     new unit-cell volume =  24910.02748 a.u.^3 (  3691.28523 Ang^3 )
     density =      2.59688 g/cm^3

CELL_PARAMETERS (angstrom)
  16.531019192   0.000000000   0.000000000
   0.000000000   8.265512526   0.000000000
   0.000000000   0.000000000  27.015200000

ATOMIC_POSITIONS (angstrom)
O             6.2555989290        2.1228045569       17.0291550669
O             8.2090244467        4.0764574722       17.0291201309
O             2.1228254599        6.2554768504       17.0291465536
O             4.0763139329        8.2091003171       17.0291584652
Al            2.0511822716        0.0152029015       17.0085459633
Al            6.1970717900        0.0020554508       17.0103982401
Al            0.0151869682        2.0511883151       17.0085469755
Al            4.1348264582        2.0643494625       17.0104004209
Al            2.0643334498        4.1348151185       17.0104091768
Al            6.1839168463        4.1479658713       17.0085672457
Al            0.0020484689        6.1970929247       17.0103891675
Al            4.1479271933        6.1839341172       17.0085367234
O             0.0804771715        0.0803885617       16.9099102192
O             1.9859075923        1.9859468791       16.9099402264
O             4.2132588389        4.2131799012       16.9098981635
O             6.1186869000        6.1186452766       16.9099472245
Al            3.0995842398        3.0995752388       16.0084860629
Al            7.2323273709        7.2323313648       16.0084732394
Al            3.1315039851        1.0364377107       16.0039834782
Al            5.1659460200        1.0332017118       15.9981548383
Al            7.2003616270        1.0299602994       16.0040038396
Al            5.1627407741        3.0676597642       16.0039542568
Al            1.0363696690        3.1314973987       16.0039550233
Al            1.0331994099        5.1659494486       15.9981324750
Al            3.0676243307        5.1627137908       16.0039620128
Al            7.2642599667        5.1691403748       16.0039762299
Al            1.0299819548        7.2003976511       16.0039557496
Al            5.1691388519        7.2642538434       16.0039330649
Al            7.2323015819        3.0995622898       16.0022899520
Al            3.0995594323        7.2322803352       16.0022720899
O             1.9834205304        0.0830262924       15.0575751517
O             0.0830101268        1.9833807264       15.0575944825
O             6.1160989610        4.2157515252       15.0576238927
O             4.2157348210        6.1161654812       15.0575768834
Al           -0.0023851506       -0.0024028564       14.9788079374
Al            4.1346257620        0.0018873696       14.9854441413
Al            2.0687802031        2.0687516556       14.9787870175
Al            6.1972331872        2.0644707500       14.9854503979
Al            0.0018831373        4.1346549758       14.9854877371
Al            4.1303524296        4.1303832144       14.9787902599
Al            2.0645092657        6.1972422277       14.9854563890
Al            6.2015236597        6.2015166334       14.9787654907
O             4.0487710185        2.1503987721       14.8855474424
O             2.1503927822        4.0487929013       14.8855292826
O             8.1815331776        6.2831374224       14.8855233731
O             6.2831014816        8.1815357159       14.8855125793
Al            5.1659437010        1.0331802437       13.9977423088
Al            1.0331923018        5.1659541661       13.9977333268
Al            3.1001553465        1.0084828935       13.9908256598
Al            7.2317320595        1.0579198431       13.9908109998
Al            1.0084890330        3.1001528076       13.9908566469
Al            5.1906736892        3.0989779441       13.9908402565
Al            7.2323314884        3.0995758303       13.9889327122
Al            7.2329004081        5.1412315281       13.9908218236
Al            3.0989663387        5.1906784235       13.9908345638
Al            1.0579189602        7.2317237302       13.9908734368
Al            3.0995829424        7.2322997756       13.9889960141
Al            5.1412219532        7.2328966939       13.9908539774
Al            1.0331672963        1.0331864740       13.9787016807
Al            5.1659217155        5.1659493907       13.9786975484
[...]
O            10.4016967625        8.1956680980       10.9311342112
Al            9.2986711716        1.0331658230        9.9906271295
Al           13.4314770055        5.1659755737        9.9906572945
Al           15.5056627875        1.0198369945        9.9737656630
Al           11.3572318381        1.0465404515        9.9737955564
Al            9.3120612354        3.0917043974        9.9737661126
Al           11.3650752625        3.0995500601        9.9799772420
Al           13.4180967754        3.1074103521        9.9737850198
Al           11.3729152820        5.1525831840        9.9737704780
Al           15.4899620696        5.1793103917        9.9737777484
Al            9.2853547250        7.2401861917        9.9737758424
Al           13.4448158090        7.2244697271        9.9737746101
Al           15.4978033897        7.2322994585        9.9799738714
Al           13.4314506786        1.0331925524        9.9613903226
Al            9.2986984264        5.1659303646        9.9613680931

     Writing config-only to output data dir ./pwscf.save/
     NEW-OLD atomic charge density approx. for the potential

     negative rho (up, down):  4.322E-03 0.000E+00
     extrapolated charge  954.80392, renormalised to  912.00000

     Self-consistent Calculation

     iteration #  1     ecut=    50.00 Ry     beta= 0.40
     CG style diagonalization
     c_bands: 40 eigenvalues not converged
     c_bands: 44 eigenvalues not converged
     c_bands: 56 eigenvalues not converged
     c_bands: 37 eigenvalues not converged
     c_bands: 49 eigenvalues not converged
     c_bands: 52 eigenvalues not converged
     ethr =  1.00E-06,  avg # of iterations = 82.5

[...]

     iteration #  3     ecut=    50.00 Ry     beta= 0.40
     CG style diagonalization
     ethr =  1.00E-02,  avg # of iterations =  3.0

     negative rho (up, down):  2.921E+01 0.000E+00

     total energy              =   -2961.49284951 Ry
     estimated scf accuracy    <     497.27145541 Ry

     iteration #  4     ecut=    50.00 Ry     beta= 0.40
     CG style diagonalization

     max_seconds     =  172800.00
     Calculation stopped in k-point loop, point #     5
     Calculation stopped in scf loop at iteration #     3

     Writing config to output data dir ./pwscf.save/

     General routines

     Parallel routines

   This run was terminated on:  22:15:26   1Feb2023

   JOB DONE.